NAME: gr17
TYPE: TSP
COMMENT: 17-city problem (Groetschel)
DIMENSION: 17
EDGE_WEIGHT_TYPE: EXPLICIT
EDGE_WEIGHT_FORMAT: LOWER_DIAG_ROW 
EDGE_WEIGHT_SECTION
 0 633 0 257 390 0 91 661 228 0 412 227
 169 383 0 150 488 112 120 267 0 80 572 196
 77 351 63 0 134 530 154 105 309 34 29 0
 259 555 372 175 338 264 232 249 0 505 289 262
 476 196 360 444 402 495 0 353 282 110 324 61
 208 292 250 352 154 0 324 638 437 240 421 329
 297 314 95 578 435 0 70 567 191 27 346 83
 47 68 189 439 287 254 0 211 466 74 182 243
 105 150 108 326 336 184 391 145 0 268 420 53
 239 199 123 207 165 383 240 140 448 202 57 0
 246 745 472 237 528 364 332 349 202 685 542 157
 289 426 483 0 121 518 142 84 297 35 29 36
 236 390 238 301 55 96 153 336 0 
EOF

DEMAND_SECTION
 16 16

  1  2  3  4  5  6  7  8  9 10 11 12 13 14 15 16
  2  3  4  5  6  7  8  9 10 11 12 13 14 15 16 17

136
  1  2  3
  1  3  3
  1  4  3
  1  5  3
  1  6  3
  1  7  3
  1  8  3
  1  9  3
  1 10  3
  1 11  3
  1 12  3
  1 13  3
  1 14  3
  1 15  3
  1 16  3
  1 17  3
  2  3  3
  2  4  3
  2  5  3
  2  6  3
  2  7  3
  2  8  3
  2  9  3
  2 10  3
  2 11  3
  2 12  3
  2 13  3
  2 14  3
  2 15  3
  2 16  3
  2 17  3
  3  4  3
  3  5  3
  3  6  3
  3  7  3
  3  8  3
  3  9  3
  3 10  3
  3 11  3
  3 12  3
  3 13  3
  3 14  3
  3 15  3
  3 16  3
  3 17  3
  4  5  3
  4  6  3
  4  7  3
  4  8  3
  4  9  3
  4 10  3
  4 11  3
  4 12  3
  4 13  3
  4 14  3
  4 15  3
  4 16  3
  4 17  3
  5  6  3
  5  7  3
  5  8  3
  5  9  3
  5 10  3
  5 11  3
  5 12  3
  5 13  3
  5 14  3
  5 15  3
  5 16  3
  5 17  3
  6  7  3
  6  8  3
  6  9  3
  6 10  3
  6 11  3
  6 12  3
  6 13  3
  6 14  3
  6 15  3
  6 16  3
  6 17  3
  7  8  3
  7  9  3
  7 10  3
  7 11  3
  7 12  3
  7 13  3
  7 14  3
  7 15  3
  7 16  3
  7 17  3
  8  9  3
  8 10  3
  8 11  3
  8 12  3
  8 13  3
  8 14  3
  8 15  3
  8 16  3
  8 17  3
  9 10  3
  9 11  3
  9 12  3
  9 13  3
  9 14  3
  9 15  3
  9 16  3
  9 17  3
 10 11  3
 10 12  3
 10 13  3
 10 14  3
 10 15  3
 10 16  3
 10 17  3
 11 12  3
 11 13  3
 11 14  3
 11 15  3
 11 16  3
 11 17  3
 12 13  3
 12 14  3
 12 15  3
 12 16  3
 12 17  3
 13 14  3
 13 15  3
 13 16  3
 13 17  3
 14 15  3
 14 16  3
 14 17  3
 15 16  3
 15 17  3
 16 17  3
